NAME : amz2984.123643_113143.tour
COMMENT : Cost = 123643_113143
COMMENT : Found by LKH-AMZ [Keld Helsgaun] Sun May 11 15:25:42 2025
COMMENT : TW viol.: 0 #: 0
TYPE : TOUR
DIMENSION : 120
TOUR_SECTION
63
71
10
55
97
109
6
28
18
93
4
3
29
56
89
11
50
107
20
12
37
99
27
59
60
111
88
41
16
70
116
120
83
54
112
80
1
96
75
64
77
100
118
86
87
85
36
43
22
98
39
65
24
40
53
25
51
69
115
31
17
114
62
45
47
74
21
92
95
30
119
104
90
79
19
8
108
102
103
13
33
58
61
67
101
66
82
34
38
84
68
94
23
14
48
110
57
106
44
91
5
35
32
26
117
42
15
2
7
78
52
113
76
49
46
73
81
9
72
105
-1
EOF
